NAME: random32
TYPE: TSP
DIMENSION: 32
EDGE_WEIGHT_TYPE: EXPLICIT
EDGE_WEIGHT_FORMAT: FULL_MATRIX
EDGE_WEIGHT_SECTION
0 1180 1180 1180 1180 1180 21 1180 1180 1180 28 10 1180 1180 1180 1180 1180 1180 1180 17 1180 1180 18 1180 1180 1180 1180 1180 1180 1180 1180 1180
1180 0 23 1180 1180 1180 1180 1180 1180 19 1180 1180 11 1180 1180 1180 1180 1180 21 1180 1180 1180 1180 28 1180 1180 1180 1180 1180 1180 1180 1180
1180 23 0 1180 25 1180 1180 1180 1180 1180 1180 1180 1180 1180 1180 1180 1180 1180 7 1180 1180 1180 1180 1180 1180 1180 1180 1180 1180 33 1180 1180
1180 1180 1180 0 1180 1180 1180 1180 1180 1180 1180 1180 36 1180 13 40 1180 1180 1180 1180 1180 1180 1180 1180 1180 23 1180 1180 1180 1180 1180 1180
1180 1180 25 1180 0 1180 16 12 1180 1180 1180 32 1180 1180 1180 1180 1180 1180 20 1180 14 1180 1180 1180 1180 1180 1180 1180 1180 37 1180 1180
1180 1180 1180 1180 1180 0 1180 1180 1180 1180 1180 1180 1180 1180 1180 20 8 12 1180 1180 1180 1180 1180 1180 1180 1180 1180 1180 1180 1180 18 1180
21 1180 1180 1180 16 1180 0 1180 1180 1180 1180 24 1180 1180 1180 1180 1180 1180 1180 12 19 1180 1180 1180 1180 1180 1180 1180 13 1180 1180 1180
1180 1180 1180 1180 12 1180 1180 0 1180 6 1180 1180 1180 1180 1180 1180 1180 1180 15 1180 19 1180 1180 16 1180 1180 1180 1180 1180 1180 1180 1180
1180 1180 1180 1180 1180 1180 1180 1180 0 1180 1180 1180 1180 1180 1180 1180 1180 1180 1180 30 1180 1180 1180 1180 27 1180 14 33 28 1180 1180 1180
1180 19 1180 1180 1180 1180 1180 6 1180 0 1180 1180 1180 1180 1180 1180 1180 1180 11 1180 1180 1180 1180 17 1180 1180 1180 1180 1180 1180 1180 1180
28 1180 1180 1180 1180 1180 1180 1180 1180 1180 0 1180 1180 1180 1180 1180 1180 1180 1180 32 1180 1180 41 1180 8 1180 1180 1180 1180 1180 1180 1180
10 1180 1180 1180 32 1180 24 1180 1180 1180 1180 0 1180 1180 1180 1180 1180 1180 1180 1180 1180 1180 9 1180 1180 1180 1180 1180 1180 15 1180 1180
1180 11 1180 36 1180 1180 1180 1180 1180 1180 1180 1180 0 1180 1180 1180 1180 1180 1180 1180 1180 1180 1180 28 1180 27 1180 1180 1180 1180 1180 1180
1180 1180 1180 1180 1180 1180 1180 1180 1180 1180 1180 1180 1180 0 10 22 1180 1180 1180 1180 1180 28 1180 24 1180 15 1180 1180 1180 1180 19 1180
1180 1180 1180 13 1180 1180 1180 1180 1180 1180 1180 1180 1180 10 0 30 1180 1180 1180 1180 1180 1180 1180 1180 1180 13 1180 1180 1180 1180 1180 1180
1180 1180 1180 40 1180 20 1180 1180 1180 1180 1180 1180 1180 22 30 0 1180 30 1180 1180 1180 1180 1180 1180 1180 1180 1180 1180 1180 1180 10 1180
1180 1180 1180 1180 1180 8 1180 1180 1180 1180 1180 1180 1180 1180 1180 1180 0 14 1180 1180 1180 20 1180 1180 1180 1180 1180 25 1180 1180 22 35
1180 1180 1180 1180 1180 12 1180 1180 1180 1180 1180 1180 1180 1180 1180 30 14 0 1180 1180 1180 1180 1180 1180 1180 1180 1180 1180 1180 1180 1180 38
1180 21 7 1180 20 1180 1180 15 1180 11 1180 1180 1180 1180 1180 1180 1180 1180 0 1180 1180 1180 1180 1180 1180 1180 1180 1180 1180 1180 1180 1180
17 1180 1180 1180 1180 1180 12 1180 30 1180 32 1180 1180 1180 1180 1180 1180 1180 1180 0 1180 1180 1180 1180 35 1180 1180 1180 9 1180 1180 1180
1180 1180 1180 1180 14 1180 19 19 1180 1180 1180 1180 1180 1180 1180 1180 1180 1180 1180 1180 0 20 1180 23 1180 1180 1180 21 23 1180 1180 1180
1180 1180 1180 1180 1180 1180 1180 1180 1180 1180 1180 1180 1180 28 1180 1180 20 1180 1180 1180 20 0 1180 28 1180 1180 1180 18 1180 1180 18 1180
18 1180 1180 1180 1180 1180 1180 1180 1180 1180 41 9 1180 1180 1180 1180 1180 1180 1180 1180 1180 1180 0 1180 1180 1180 1180 1180 1180 9 1180 1180
1180 28 1180 1180 1180 1180 1180 16 1180 17 1180 1180 28 24 1180 1180 1180 1180 1180 1180 23 28 1180 0 1180 12 1180 1180 1180 1180 1180 1180
1180 1180 1180 1180 1180 1180 1180 1180 27 1180 8 1180 1180 1180 1180 1180 1180 1180 1180 35 1180 1180 1180 1180 0 1180 41 1180 1180 1180 1180 1180
1180 1180 1180 23 1180 1180 1180 1180 1180 1180 1180 1180 27 15 13 1180 1180 1180 1180 1180 1180 1180 1180 12 1180 0 1180 1180 1180 1180 1180 1180
1180 1180 1180 1180 1180 1180 1180 1180 14 1180 1180 1180 1180 1180 1180 1180 1180 1180 1180 1180 1180 1180 1180 1180 41 1180 0 33 1180 1180 1180 10
1180 1180 1180 1180 1180 1180 1180 1180 33 1180 1180 1180 1180 1180 1180 1180 25 1180 1180 1180 21 18 1180 1180 1180 1180 33 0 18 1180 1180 32
1180 1180 1180 1180 1180 1180 13 1180 28 1180 1180 1180 1180 1180 1180 1180 1180 1180 1180 9 23 1180 1180 1180 1180 1180 1180 18 0 1180 1180 1180
1180 1180 33 1180 37 1180 1180 1180 1180 1180 1180 15 1180 1180 1180 1180 1180 1180 1180 1180 1180 1180 9 1180 1180 1180 1180 1180 1180 0 1180 1180
1180 1180 1180 1180 1180 18 1180 1180 1180 1180 1180 1180 1180 19 1180 10 22 1180 1180 1180 1180 18 1180 1180 1180 1180 1180 1180 1180 1180 0 1180
1180 1180 1180 1180 1180 1180 1180 1180 1180 1180 1180 1180 1180 1180 1180 1180 35 38 1180 1180 1180 1180 1180 1180 1180 1180 10 32 1180 1180 1180 0
EOF
